c User generated cnf file
p cnf 11 63
8 2 -9 0 
3 -8 11 0 
6 -7 10 0 
4 9 -6 0 
3 -3 11 0 
10 -8 3 0 
1 -1 4 0 
9 -9 5 0 
5 -5 4 0 
11 1 -10 0 
4 -11 2 0 
9 -5 7 0 
3 -2 4 0 
3 4 -10 0 
11 -1 6 0 
1 -2 6 0 
11 -8 3 0 
11 -6 1 0 
5 -10 4 0 
3 9 -1 0 
6 -2 4 0 
8 -8 7 0 
4 9 -9 0 
6 8 -11 0 
5 -10 9 0 
7 -10 9 0 
11 -3 3 0 
11 7 -8 0 
9 -10 5 0 
10 -3 2 0 
3 -1 2 0 
2 -8 11 0 
11 -10 9 0 
5 5 -11 0 
3 -7 1 0 
9 2 -10 0 
7 6 -9 0 
7 9 -11 0 
4 -2 7 0 
11 -5 1 0 
2 -3 2 0 
3 -1 9 0 
2 9 -11 0 
3 9 -7 0 
11 -4 9 0 
6 -11 11 0 
3 11 -10 0 
7 8 -9 0 
8 -8 10 0 
5 -9 2 0 
3 3 -7 0 
1 -8 6 0 
1 -4 7 0 
6 9 -4 0 
9 8 -1 0 
2 -7 7 0 
2 3 -7 0 
10 -5 10 0 
10 -6 5 0 
4 3 -9 0 
2 2 -3 0 
4 -11 8 0 
11 5 -7 0 
